language ESSENCE' 1.0
$ loaded file: carseqdata/csplib-instance-13
letting numcars=200
letting numclasses=18
letting numoptions=5
letting optMax=[1, 2, 1, 2, 1]
letting windowSize=[2, 3, 3, 5, 5]
letting numberPerClass=[30, 1, 7, 4, 1, 1, 2, 3, 7, 3, 8, 73, 2, 3, 33, 17, 1, 4]
letting optionsRequired=[[0, 0, 0, 0, 1], [0, 1, 1, 0, 1], [0, 1, 0, 1, 0], [1, 0, 1, 0, 0], [0, 0, 0, 1, 1], [0, 1, 1, 0, 0], [0, 0, 1, 0, 1], [1, 1, 1, 0, 0], [1, 1, 0, 0, 0], [0, 1, 1, 1, 0], [0, 0, 1, 1, 0], [0, 1, 0, 0, 0], [1, 0, 0, 1, 0], [0, 1, 0, 0, 1], [1, 0, 0, 0, 0], [0, 0, 0, 1, 0], [1, 0, 1, 1, 0], [0, 0, 1, 0, 0]]
